WARNING: for repeatability, setting FPU to use double precision
============================[ Problem Statistics ]=============================
|                                                                             |
|  Number of variables:        390990                                         |
|  Number of clauses:          939152                                         |
|  Parse time:                   0.26 s                                       |
|                                                                             |
============================[ Search Statistics ]==============================
| Conflicts |          ORIGINAL         |          LEARNT          | Progress |
|           |    Vars  Clauses Literals |    Limit  Clauses Lit/Cl |          |
===============================================================================
|       100 |  221232   905864  2033560 |   332150      100     34 | 43.417 % |
|       250 |  221232   905864  2033560 |   365365      250     38 | 43.417 % |
|       475 |  221232   905864  2033560 |   401901      475     63 | 43.417 % |
|       812 |  221232   905864  2033560 |   442091      812     76 | 43.417 % |
|      1318 |  221232   905864  2033560 |   486301     1318     77 | 43.417 % |
|      2077 |  221232   905864  2033560 |   534931     2077     62 | 43.417 % |
|      3216 |  221232   905864  2033560 |   588424     3216     90 | 43.417 % |
|      4924 |  221232   905864  2033560 |   647266     4924     89 | 43.417 % |
|      7486 |  221232   905864  2033560 |   711993     7486    104 | 43.417 % |
|     11330 |  221232   905864  2033560 |   783192    11330    107 | 43.417 % |
===============================================================================
restarts              : 61
conflicts             : 13968          (1188 /sec)
decisions             : 132261         (0.00 % random) (11254 /sec)
propagations          : 64272978       (5468768 /sec)
conflict literals     : 1469825        (11.55 % deleted)
Memory used           : 93.00 MB
CPU time              : 11.7527 s

SATISFIABLE
